
  12    4
  10   10   10   10

   0   0   0   0   0   6 2 4 5 6 7 11 
   3  10  10  10  10   1 3 
   1  10  10  10  10   2 10 9 
   6  10  10  10  10   1 9 
   1  10  10  10  10   1 8 
   6  10  10  10  10   1 8 
   5  10  10  10  10   1 8 
   2  10  10  10  10   1 12
   1  10  10  10  10   1 12
   8  10  10  10  10   1 12
   4  10  10  10  10   1 12
   0   0   0   0   0   0 
